\Problem name: compact

Minimize
OBJROW: C
Subject To
ord(0,1):  - x(0,1) + x(0,2) >= 7
ord(0,2):  x(0,0) - x(0,2) >= 7
ord(1,1):  x(1,0) - x(1,1) >= 4
ord(1,2):  - x(1,0) + x(1,2) >= 3
ord(2,1):  - x(2,1) + x(2,2) >= 7
ord(2,2):  x(2,0) - x(2,2) >= 6
triangle2(0,1,0):  y(0,1,0) + y(1,0,0) = 1
triangle2(0,1,1):  y(0,1,1) + y(1,0,1) = 1
triangle2(0,1,2):  y(0,1,2) + y(1,0,2) = 1
triangle2(0,2,0):  y(0,2,0) + y(2,0,0) = 1
triangle2(0,2,1):  y(0,2,1) + y(2,0,1) = 1
triangle2(0,2,2):  y(0,2,2) + y(2,0,2) = 1
triangle2(1,2,0):  y(1,2,0) + y(2,1,0) = 1
triangle2(1,2,1):  y(1,2,1) + y(2,1,1) = 1
triangle2(1,2,2):  y(1,2,2) + y(2,1,2) = 1
MCLinV(0,1,0):  - x(0,0) + v(0,1,0)p - v(0,1,0)n + x(1,0) = -3
MCLinV(1,0,0):  x(0,0) + v(1,0,0)p - v(1,0,0)n - x(1,0) = -1
MCLin1(0,1,0):  u(0,1,0)p - u(0,1,0)n >= 0
MCLin2(0,1,0):  23 y(1,0,0) + u(0,1,0)p - u(0,1,0)n >= 0
MCLin3(0,1,0):  -36 y(1,0,0) - v(0,1,0)p + v(0,1,0)n + u(0,1,0)p - u(0,1,0)n >= -36
MCLin4(0,1,0):  -36 y(1,0,0) + u(0,1,0)p - u(0,1,0)n <= 0
MCLin5(0,1,0):  23 y(1,0,0) - v(0,1,0)p + v(0,1,0)n + u(0,1,0)p - u(0,1,0)n <= 23
MCLin6(1,0,0):  u(1,0,0)p - u(1,0,0)n >= 0
MCLin7(1,0,0):  40 y(0,1,0) + u(1,0,0)p - u(1,0,0)n >= 0
MCLin8(1,0,0):  -19 y(0,1,0) - v(1,0,0)p + v(1,0,0)n + u(1,0,0)p - u(1,0,0)n >= -19
MCLin9(1,0,0):  -19 y(0,1,0) + u(1,0,0)p - u(1,0,0)n <= 0
MCLin10(1,0,0):  40 y(0,1,0) - v(1,0,0)p + v(1,0,0)n + u(1,0,0)p - u(1,0,0)n <= 40
MCLinV(0,1,1):  - x(0,1) + v(0,1,1)p - v(0,1,1)n + x(1,1) = -4
MCLinV(1,0,1):  x(0,1) + v(1,0,1)p - v(1,0,1)n - x(1,1) = -7
MCLin1(0,1,1):  u(0,1,1)p - u(0,1,1)n >= 0
MCLin2(0,1,1):  34 y(1,0,1) + u(0,1,1)p - u(0,1,1)n >= 0
MCLin3(0,1,1):  -25 y(1,0,1) - v(0,1,1)p + v(0,1,1)n + u(0,1,1)p - u(0,1,1)n >= -25
MCLin4(0,1,1):  -25 y(1,0,1) + u(0,1,1)p - u(0,1,1)n <= 0
MCLin5(0,1,1):  34 y(1,0,1) - v(0,1,1)p + v(0,1,1)n + u(0,1,1)p - u(0,1,1)n <= 34
MCLin6(1,0,1):  u(1,0,1)p - u(1,0,1)n >= 0
MCLin7(1,0,1):  36 y(0,1,1) + u(1,0,1)p - u(1,0,1)n >= 0
MCLin8(1,0,1):  -23 y(0,1,1) - v(1,0,1)p + v(1,0,1)n + u(1,0,1)p - u(1,0,1)n >= -23
MCLin9(1,0,1):  -23 y(0,1,1) + u(1,0,1)p - u(1,0,1)n <= 0
MCLin10(1,0,1):  36 y(0,1,1) - v(1,0,1)p + v(1,0,1)n + u(1,0,1)p - u(1,0,1)n <= 36
MCLinV(0,1,2):  - x(0,2) + v(0,1,2)p - v(0,1,2)n + x(1,2) = -7
MCLinV(1,0,2):  x(0,2) + v(1,0,2)p - v(1,0,2)n - x(1,2) = -7
MCLin1(0,1,2):  u(0,1,2)p - u(0,1,2)n >= 0
MCLin2(0,1,2):  37 y(1,0,2) + u(0,1,2)p - u(0,1,2)n >= 0
MCLin3(0,1,2):  -22 y(1,0,2) - v(0,1,2)p + v(0,1,2)n + u(0,1,2)p - u(0,1,2)n >= -22
MCLin4(0,1,2):  -22 y(1,0,2) + u(0,1,2)p - u(0,1,2)n <= 0
MCLin5(0,1,2):  37 y(1,0,2) - v(0,1,2)p + v(0,1,2)n + u(0,1,2)p - u(0,1,2)n <= 37
MCLin6(1,0,2):  u(1,0,2)p - u(1,0,2)n >= 0
MCLin7(1,0,2):  36 y(0,1,2) + u(1,0,2)p - u(1,0,2)n >= 0
MCLin8(1,0,2):  -23 y(0,1,2) - v(1,0,2)p + v(1,0,2)n + u(1,0,2)p - u(1,0,2)n >= -23
MCLin9(1,0,2):  -23 y(0,1,2) + u(1,0,2)p - u(1,0,2)n <= 0
MCLin10(1,0,2):  36 y(0,1,2) - v(1,0,2)p + v(1,0,2)n + u(1,0,2)p - u(1,0,2)n <= 36
MCLinV(0,2,0):  - x(0,0) + v(0,2,0)p - v(0,2,0)n + x(2,0) = -2
MCLinV(2,0,0):  x(0,0) + v(2,0,0)p - v(2,0,0)n - x(2,0) = -1
MCLin1(0,2,0):  u(0,2,0)p - u(0,2,0)n >= 0
MCLin2(0,2,0):  30 y(2,0,0) + u(0,2,0)p - u(0,2,0)n >= 0
MCLin3(0,2,0):  -28 y(2,0,0) - v(0,2,0)p + v(0,2,0)n + u(0,2,0)p - u(0,2,0)n >= -28
MCLin4(0,2,0):  -28 y(2,0,0) + u(0,2,0)p - u(0,2,0)n <= 0
MCLin5(0,2,0):  30 y(2,0,0) - v(0,2,0)p + v(0,2,0)n + u(0,2,0)p - u(0,2,0)n <= 30
MCLin6(2,0,0):  u(2,0,0)p - u(2,0,0)n >= 0
MCLin7(2,0,0):  31 y(0,2,0) + u(2,0,0)p - u(2,0,0)n >= 0
MCLin8(2,0,0):  -27 y(0,2,0) - v(2,0,0)p + v(2,0,0)n + u(2,0,0)p - u(2,0,0)n >= -27
MCLin9(2,0,0):  -27 y(0,2,0) + u(2,0,0)p - u(2,0,0)n <= 0
MCLin10(2,0,0):  31 y(0,2,0) - v(2,0,0)p + v(2,0,0)n + u(2,0,0)p - u(2,0,0)n <= 31
MCLinV(0,2,1):  - x(0,1) + v(0,2,1)p - v(0,2,1)n + x(2,1) = -7
MCLinV(2,0,1):  x(0,1) + v(2,0,1)p - v(2,0,1)n - x(2,1) = -7
MCLin1(0,2,1):  u(0,2,1)p - u(0,2,1)n >= 0
MCLin2(0,2,1):  36 y(2,0,1) + u(0,2,1)p - u(0,2,1)n >= 0
MCLin3(0,2,1):  -22 y(2,0,1) - v(0,2,1)p + v(0,2,1)n + u(0,2,1)p - u(0,2,1)n >= -22
MCLin4(0,2,1):  -22 y(2,0,1) + u(0,2,1)p - u(0,2,1)n <= 0
MCLin5(0,2,1):  36 y(2,0,1) - v(0,2,1)p + v(0,2,1)n + u(0,2,1)p - u(0,2,1)n <= 36
MCLin6(2,0,1):  u(2,0,1)p - u(2,0,1)n >= 0
MCLin7(2,0,1):  36 y(0,2,1) + u(2,0,1)p - u(2,0,1)n >= 0
MCLin8(2,0,1):  -22 y(0,2,1) - v(2,0,1)p + v(2,0,1)n + u(2,0,1)p - u(2,0,1)n >= -22
MCLin9(2,0,1):  -22 y(0,2,1) + u(2,0,1)p - u(2,0,1)n <= 0
MCLin10(2,0,1):  36 y(0,2,1) - v(2,0,1)p + v(2,0,1)n + u(2,0,1)p - u(2,0,1)n <= 36
MCLinV(0,2,2):  - x(0,2) + v(0,2,2)p - v(0,2,2)n + x(2,2) = -6
MCLinV(2,0,2):  x(0,2) + v(2,0,2)p - v(2,0,2)n - x(2,2) = -7
MCLin1(0,2,2):  u(0,2,2)p - u(0,2,2)n >= 0
MCLin2(0,2,2):  35 y(2,0,2) + u(0,2,2)p - u(0,2,2)n >= 0
MCLin3(0,2,2):  -23 y(2,0,2) - v(0,2,2)p + v(0,2,2)n + u(0,2,2)p - u(0,2,2)n >= -23
MCLin4(0,2,2):  -23 y(2,0,2) + u(0,2,2)p - u(0,2,2)n <= 0
MCLin5(0,2,2):  35 y(2,0,2) - v(0,2,2)p + v(0,2,2)n + u(0,2,2)p - u(0,2,2)n <= 35
MCLin6(2,0,2):  u(2,0,2)p - u(2,0,2)n >= 0
MCLin7(2,0,2):  36 y(0,2,2) + u(2,0,2)p - u(2,0,2)n >= 0
MCLin8(2,0,2):  -22 y(0,2,2) - v(2,0,2)p + v(2,0,2)n + u(2,0,2)p - u(2,0,2)n >= -22
MCLin9(2,0,2):  -22 y(0,2,2) + u(2,0,2)p - u(2,0,2)n <= 0
MCLin10(2,0,2):  36 y(0,2,2) - v(2,0,2)p + v(2,0,2)n + u(2,0,2)p - u(2,0,2)n <= 36
MCLinV(1,2,0):  - x(1,0) + v(1,2,0)p - v(1,2,0)n + x(2,0) = -2
MCLinV(2,1,0):  x(1,0) + v(2,1,0)p - v(2,1,0)n - x(2,0) = -3
MCLin1(1,2,0):  u(1,2,0)p - u(1,2,0)n >= 0
MCLin2(1,2,0):  40 y(2,1,0) + u(1,2,0)p - u(1,2,0)n >= 0
MCLin3(1,2,0):  -19 y(2,1,0) - v(1,2,0)p + v(1,2,0)n + u(1,2,0)p - u(1,2,0)n >= -19
MCLin4(1,2,0):  -19 y(2,1,0) + u(1,2,0)p - u(1,2,0)n <= 0
MCLin5(1,2,0):  40 y(2,1,0) - v(1,2,0)p + v(1,2,0)n + u(1,2,0)p - u(1,2,0)n <= 40
MCLin6(2,1,0):  u(2,1,0)p - u(2,1,0)n >= 0
MCLin7(2,1,0):  24 y(1,2,0) + u(2,1,0)p - u(2,1,0)n >= 0
MCLin8(2,1,0):  -35 y(1,2,0) - v(2,1,0)p + v(2,1,0)n + u(2,1,0)p - u(2,1,0)n >= -35
MCLin9(2,1,0):  -35 y(1,2,0) + u(2,1,0)p - u(2,1,0)n <= 0
MCLin10(2,1,0):  24 y(1,2,0) - v(2,1,0)p + v(2,1,0)n + u(2,1,0)p - u(2,1,0)n <= 24
MCLinV(1,2,1):  - x(1,1) + v(1,2,1)p - v(1,2,1)n + x(2,1) = -7
MCLinV(2,1,1):  x(1,1) + v(2,1,1)p - v(2,1,1)n - x(2,1) = -4
MCLin1(1,2,1):  u(1,2,1)p - u(1,2,1)n >= 0
MCLin2(1,2,1):  36 y(2,1,1) + u(1,2,1)p - u(1,2,1)n >= 0
MCLin3(1,2,1):  -23 y(2,1,1) - v(1,2,1)p + v(1,2,1)n + u(1,2,1)p - u(1,2,1)n >= -23
MCLin4(1,2,1):  -23 y(2,1,1) + u(1,2,1)p - u(1,2,1)n <= 0
MCLin5(1,2,1):  36 y(2,1,1) - v(1,2,1)p + v(1,2,1)n + u(1,2,1)p - u(1,2,1)n <= 36
MCLin6(2,1,1):  u(2,1,1)p - u(2,1,1)n >= 0
MCLin7(2,1,1):  34 y(1,2,1) + u(2,1,1)p - u(2,1,1)n >= 0
MCLin8(2,1,1):  -25 y(1,2,1) - v(2,1,1)p + v(2,1,1)n + u(2,1,1)p - u(2,1,1)n >= -25
MCLin9(2,1,1):  -25 y(1,2,1) + u(2,1,1)p - u(2,1,1)n <= 0
MCLin10(2,1,1):  34 y(1,2,1) - v(2,1,1)p + v(2,1,1)n + u(2,1,1)p - u(2,1,1)n <= 34
MCLinV(1,2,2):  - x(1,2) + v(1,2,2)p - v(1,2,2)n + x(2,2) = -6
MCLinV(2,1,2):  x(1,2) + v(2,1,2)p - v(2,1,2)n - x(2,2) = -7
MCLin1(1,2,2):  u(1,2,2)p - u(1,2,2)n >= 0
MCLin2(1,2,2):  35 y(2,1,2) + u(1,2,2)p - u(1,2,2)n >= 0
MCLin3(1,2,2):  -24 y(2,1,2) - v(1,2,2)p + v(1,2,2)n + u(1,2,2)p - u(1,2,2)n >= -24
MCLin4(1,2,2):  -24 y(2,1,2) + u(1,2,2)p - u(1,2,2)n <= 0
MCLin5(1,2,2):  35 y(2,1,2) - v(1,2,2)p + v(1,2,2)n + u(1,2,2)p - u(1,2,2)n <= 35
MCLin6(2,1,2):  u(2,1,2)p - u(2,1,2)n >= 0
MCLin7(2,1,2):  37 y(1,2,2) + u(2,1,2)p - u(2,1,2)n >= 0
MCLin8(2,1,2):  -22 y(1,2,2) - v(2,1,2)p + v(2,1,2)n + u(2,1,2)p - u(2,1,2)n >= -22
MCLin9(2,1,2):  -22 y(1,2,2) + u(2,1,2)p - u(2,1,2)n <= 0
MCLin10(2,1,2):  37 y(1,2,2) - v(2,1,2)p + v(2,1,2)n + u(2,1,2)p - u(2,1,2)n <= 37
makespan(0):  C - x(0,0) >= 1
makespan(1):  C - x(1,2) >= 7
makespan(2):  C - x(2,0) >= 2
cut_clique_1(0,0):  0.01008 x(0,0) + 0.06559 x(2,0) >= 1
cut_clique_1(1,0):  0.00998 x(0,0) + 0.06559 x(2,0) >= 1
cut_clique_1(2,0):  0.00988 x(0,0) + 0.06559 x(2,0) >= 1
cut_clique_1(0,1):  0.52979 x(0,1) + 0.72405 x(1,1) + 0.90456 x(2,1) >= 1
cut_clique_1(1,1):  0.51666 x(0,1) + 0.68545 x(1,1) + 0.87770 x(2,1) >= 1
cut_clique_1(2,1):  0.51666 x(0,1) + 0.76747 x(1,1) + 0.93651 x(2,1) >= 1
cut_clique_1(3,1):  0.48050 x(0,1) + 0.76747 x(1,1) + 0.93651 x(2,1) >= 1
cut_clique_1(4,1):  0.52979 x(0,1) + 0.75665 x(1,1) + 0.81256 x(2,1) >= 1
cut_clique_1(5,1):  0.58258 x(0,1) + 0.95793 x(1,1) + 0.81785 x(2,1) >= 1
cut_clique_1(6,1):  0.57151 x(0,1) + 0.82424 x(1,1) + 0.79663 x(2,1) >= 1
cut_clique_1(7,1):  0.51666 x(0,1) + 0.73344 x(1,1) + 0.93651 x(2,1) >= 1
cut_clique_1(8,1):  0.57151 x(0,1) + 0.90576 x(1,1) + 0.87541 x(2,1) >= 1
cut_clique_1(9,1):  0.58258 x(0,1) + 0.90576 x(1,1) + 0.80967 x(2,1) >= 1
cut_clique_1(10,1):  0.52432 x(0,1) + 0.90576 x(1,1) + 0.82586 x(2,1) >= 1
cut_clique_1(11,1):  0.43725 x(0,1) + 0.76747 x(1,1) + 0.93651 x(2,1) >= 1
cut_clique_1(12,1):  0.52979 x(0,1) + 0.75665 x(1,1) + 0.82881 x(2,1) >= 1
cut_clique_1(13,1):  0.58258 x(0,1) + 0.90576 x(1,1) + 0.82586 x(2,1) >= 1
cut_clique_1(14,1):  0.52979 x(0,1) + 0.84073 x(1,1) + 0.81256 x(2,1) >= 1
cut_clique_1(15,1):  0.51666 x(0,1) + 0.70738 x(1,1) + 0.87770 x(2,1) >= 1
cut_clique_1(16,1):  0.57151 x(0,1) + 0.82424 x(1,1) + 0.87541 x(2,1) >= 1
cut_clique_1(17,1):  0.99918 x(0,1) + 0.95125 x(1,1) + 0.99364 x(2,1) >= 1
cut_clique_1(18,1):  0.58258 x(0,1) + 0.95793 x(1,1) + 0.80967 x(2,1) >= 1
cut_clique_1(19,1):  0.52979 x(0,1) + 0.67865 x(1,1) + 0.92265 x(2,1) >= 1
cut_clique_1(20,1):  0.58258 x(0,1) + 0.87938 x(1,1) + 0.80967 x(2,1) >= 1
cut_clique_1(21,1):  0.99918 x(0,1) + 0.97979 x(1,1) + 0.99364 x(2,1) >= 1
cut_clique_1(22,1):  0.52979 x(0,1) + 0.65888 x(1,1) + 0.90456 x(2,1) >= 1
cut_clique_1(23,1):  0.52979 x(0,1) + 0.72866 x(1,1) + 0.82881 x(2,1) >= 1
cut_clique_1(24,1):  0.51666 x(0,1) + 0.67201 x(1,1) + 0.87770 x(2,1) >= 1
cut_clique_1(25,1):  0.99918 x(0,1) + 0.92355 x(1,1) + 0.98380 x(2,1) >= 1
cut_clique_1(26,1):  0.99918 x(0,1) + 0.88803 x(1,1) + 0.98380 x(2,1) >= 1
cut_clique_1(27,1):  0.51666 x(0,1) + 0.81646 x(1,1) + 0.93651 x(2,1) >= 1
cut_clique_1(28,1):  0.99918 x(0,1) + 0.92355 x(1,1) + 0.99364 x(2,1) >= 1
cut_clique_1(29,1):  0.48286 x(0,1) + 0.76889 x(1,1) + 0.87770 x(2,1) >= 1
cut_clique_1(30,1):  0.53509 x(0,1) + 0.65150 x(1,1) + 0.86730 x(2,1) >= 1
cut_clique_1(31,1):  0.99918 x(0,1) + 0.99939 x(1,1) + 0.99364 x(2,1) >= 1
cut_clique_1(32,1):  0.50298 x(0,1) + 0.76889 x(1,1) + 0.87770 x(2,1) >= 1
cut_clique_1(33,1):  0.43288 x(0,1) + 0.76747 x(1,1) + 0.85222 x(2,1) >= 1
cut_clique_1(34,1):  0.52979 x(0,1) + 0.65888 x(1,1) + 0.92265 x(2,1) >= 1
cut_clique_1(35,1):  0.53509 x(0,1) + 0.67865 x(1,1) + 0.92265 x(2,1) >= 1
cut_clique_1(36,1):  0.50298 x(0,1) + 0.65150 x(1,1) + 0.95402 x(2,1) >= 1
cut_clique_1(37,1):  0.53509 x(0,1) + 0.67865 x(1,1) + 0.86730 x(2,1) >= 1
cut_clique_1(38,1):  0.48286 x(0,1) + 0.70738 x(1,1) + 0.87770 x(2,1) >= 1
cut_clique_1(39,1):  0.51666 x(0,1) + 0.67476 x(1,1) + 0.93651 x(2,1) >= 1
cut_clique_1(40,1):  0.51666 x(0,1) + 0.68545 x(1,1) + 0.85137 x(2,1) >= 1
cut_clique_1(41,1):  0.51436 x(0,1) + 0.84073 x(1,1) + 0.81256 x(2,1) >= 1
cut_clique_1(42,1):  0.52979 x(0,1) + 0.68099 x(1,1) + 0.82881 x(2,1) >= 1
cut_clique_1(43,1):  0.51436 x(0,1) + 0.84073 x(1,1) + 0.79663 x(2,1) >= 1
cut_clique_1(44,1):  0.39353 x(0,1) + 0.76747 x(1,1) + 0.93651 x(2,1) >= 1
cut_clique_1(45,1):  0.51666 x(0,1) + 0.74224 x(1,1) + 0.93651 x(2,1) >= 1
cut_clique_1(46,1):  0.52432 x(0,1) + 0.90576 x(1,1) + 0.87541 x(2,1) >= 1
cut_clique_1(47,1):  0.51436 x(0,1) + 0.82424 x(1,1) + 0.79663 x(2,1) >= 1
cut_clique_1(48,1):  0.51666 x(0,1) + 0.68545 x(1,1) + 0.93651 x(2,1) >= 1
cut_clique_1(49,1):  0.58258 x(0,1) + 0.86214 x(1,1) + 0.80967 x(2,1) >= 1
cut_clique_1(0,2):  0.09812 x(0,2) + 0.03759 x(2,2) >= 1
cut_clique_1(1,2):  0.09812 x(0,2) + 0.03721 x(2,2) >= 1
cut_clique_1(2,2):  0.09518 x(0,2) + 0.03721 x(2,2) >= 1
cut_clique_1(3,2):  0.09518 x(0,2) + 0.03461 x(2,2) >= 1
cut_clique_1(4,2):  0.09518 x(0,2) + 0.03149 x(2,2) >= 1
cut_clique_1(5,2):  0.09042 x(0,2) + 0.03149 x(2,2) >= 1
cut_clique_1(6,2):  0.08138 x(0,2) + 0.03149 x(2,2) >= 1
cut_clique_1(7,2):  0.08056 x(0,2) + 0.03149 x(2,2) >= 1
cut_clique_1(8,2):  0.08056 x(0,2) + 0.03118 x(2,2) >= 1
cut_clique_2(0,1):  0.95389 x(0,1) + 0.67355 x(2,1) >= 1
cut_clique_2(1,1):  0.92661 x(0,1) + 0.72061 x(2,1) >= 1
cut_clique_2(2,1):  0.91640 x(0,1) + 0.73256 x(2,1) >= 1
cut_clique_2(3,1):  0.82443 x(0,1) + 0.79721 x(2,1) >= 1
cut_clique_2(4,1):  0.88545 x(0,1) + 0.72451 x(2,1) >= 1
cut_clique_2(5,1):  0.92661 x(0,1) + 0.72789 x(2,1) >= 1
cut_clique_2(6,1):  0.88545 x(0,1) + 0.78247 x(2,1) >= 1
cut_clique_2(7,1):  0.90841 x(0,1) + 0.73521 x(2,1) >= 1
cut_clique_2(8,1):  0.83597 x(0,1) + 0.73521 x(2,1) >= 1
cut_clique_2(9,1):  0.91640 x(0,1) + 0.79721 x(2,1) >= 1
cut_clique_2(10,1):  0.88545 x(0,1) + 0.71734 x(2,1) >= 1
cut_clique_2(11,1):  0.87777 x(0,1) + 0.73521 x(2,1) >= 1
cut_clique_2(12,1):  0.71730 x(0,1) + 0.99805 x(2,1) >= 1
cut_clique_2(13,1):  0.89038 x(0,1) + 0.74723 x(2,1) >= 1
cut_clique_2(14,1):  0.94474 x(0,1) + 0.73256 x(2,1) >= 1
cut_clique_2(15,1):  0.76765 x(0,1) + 0.95499 x(2,1) >= 1
cut_clique_2(16,1):  0.91640 x(0,1) + 0.76655 x(2,1) >= 1
cut_clique_2(17,1):  0.89038 x(0,1) + 0.79721 x(2,1) >= 1
cut_clique_2(18,1):  0.83597 x(0,1) + 0.81690 x(2,1) >= 1
cut_clique_2(19,1):  0.87495 x(0,1) + 0.74723 x(2,1) >= 1
cut_clique_2(20,1):  0.94474 x(0,1) + 0.69109 x(2,1) >= 1
cut_clique_2(21,1):  0.76765 x(0,1) + 0.87613 x(2,1) >= 1
cut_clique_2(22,1):  0.84126 x(0,1) + 0.79721 x(2,1) >= 1
cut_clique_2(23,1):  0.76034 x(0,1) + 0.99805 x(2,1) >= 1
cut_clique_2(24,1):  0.88545 x(0,1) + 0.74335 x(2,1) >= 1
cut_clique_2(25,1):  0.91288 x(0,1) + 0.73521 x(2,1) >= 1
cut_clique_2(26,1):  0.66084 x(0,1) + 0.99078 x(2,1) >= 1
cut_clique_2(27,1):  0.62780 x(0,1) + 0.99078 x(2,1) >= 1
cut_clique_2(28,1):  0.82476 x(0,1) + 0.79721 x(2,1) >= 1
cut_clique_2(29,1):  0.67670 x(0,1) + 0.99805 x(2,1) >= 1
cut_clique_2(30,1):  0.95772 x(0,1) + 0.99805 x(2,1) >= 1
cut_clique_2(31,1):  0.88545 x(0,1) + 0.74723 x(2,1) >= 1
cut_clique_2(32,1):  0.94474 x(0,1) + 0.73521 x(2,1) >= 1
cut_clique_2(33,1):  0.62780 x(0,1) + 0.95115 x(2,1) >= 1
cut_clique_2(34,1):  0.76765 x(0,1) + 0.89769 x(2,1) >= 1
cut_clique_2(35,1):  0.99603 x(0,1) + 0.99805 x(2,1) >= 1
cut_clique_2(36,1):  0.76765 x(0,1) + 0.81690 x(2,1) >= 1
cut_clique_2(37,1):  0.63839 x(0,1) + 0.99805 x(2,1) >= 1
cut_clique_2(38,1):  0.73812 x(0,1) + 0.87613 x(2,1) >= 1
cut_clique_2(39,1):  0.84898 x(0,1) + 0.73521 x(2,1) >= 1
cut_clique_2(40,1):  0.91640 x(0,1) + 0.70326 x(2,1) >= 1
cut_clique_2(41,1):  0.84441 x(0,1) + 0.81690 x(2,1) >= 1
cut_clique_2(42,1):  0.60799 x(0,1) + 0.99805 x(2,1) >= 1
cut_clique_2(43,1):  0.84237 x(0,1) + 0.72789 x(2,1) >= 1
cut_clique_2(44,1):  0.70298 x(0,1) + 0.90323 x(2,1) >= 1
cut_clique_2(45,1):  0.81356 x(0,1) + 0.99805 x(2,1) >= 1
cut_clique_2(46,1):  0.87865 x(0,1) + 0.99805 x(2,1) >= 1
cut_clique_2(47,1):  0.99603 x(0,1) + 0.99983 x(2,1) >= 1
cut_clique_2(48,1):  0.73812 x(0,1) + 0.90323 x(2,1) >= 1
cut_clique_2(49,1):  0.89038 x(0,1) + 0.72546 x(2,1) >= 1
cut_clique_3(0,1):  0.25753 x(0,1) + 0.79409 x(1,1) >= 1
cut_clique_3(1,1):  0.25753 x(0,1) + 0.83379 x(1,1) >= 1
cut_clique_3(2,1):  0.28071 x(0,1) + 0.83379 x(1,1) >= 1
cut_clique_3(3,1):  0.28071 x(0,1) + 0.81711 x(1,1) >= 1
cut_clique_3(4,1):  0.27509 x(0,1) + 0.81711 x(1,1) >= 1
cut_clique_3(5,1):  0.14351 x(0,1) + 0.98751 x(2,1) >= 1
cut_clique_3(6,1):  0.14351 x(0,1) + 0.83832 x(2,1) >= 1
cut_clique_3(7,1):  0.14351 x(0,1) + 0.99738 x(2,1) >= 1
cut_clique_3(8,1):  0.28786 x(0,1) + 0.87284 x(1,1) >= 1
cut_clique_3(9,1):  0.26483 x(0,1) + 0.87284 x(1,1) >= 1
cut_clique_3(10,1):  0.26483 x(0,1) + 0.91648 x(1,1) >= 1
cut_clique_3(11,1):  0.14351 x(0,1) + 0.97773 x(2,1) >= 1
cut_clique_3(12,1):  0.14351 x(0,1) + 0.76211 x(2,1) >= 1
cut_clique_3(13,1):  0.27134 x(0,1) + 0.98980 x(1,1) >= 1
cut_clique_3(14,1):  0.27134 x(0,1) + 0.91062 x(1,1) >= 1
cut_clique_3(15,1):  0.14351 x(0,1) + 0.89700 x(2,1) >= 1
cut_clique_3(16,1):  0.14351 x(0,1) + 0.75456 x(2,1) >= 1
cut_clique_3(17,1):  0.28358 x(0,1) + 0.91062 x(1,1) >= 1
cut_clique_3(18,1):  0.14351 x(0,1) + 0.67788 x(2,1) >= 1
cut_clique_3(19,1):  0.14351 x(0,1) + 0.69822 x(2,1) >= 1
cut_clique_3(20,1):  0.14351 x(0,1) + 0.70520 x(2,1) >= 1
cut_clique_3(21,1):  0.41320 x(0,1) + 0.35817 x(2,1) >= 1
cut_clique_3(22,1):  0.39667 x(0,1) + 0.35817 x(2,1) >= 1
cut_clique_3(23,1):  0.37684 x(0,1) + 0.35817 x(2,1) >= 1
cut_clique_3(24,1):  0.37307 x(0,1) + 0.35817 x(2,1) >= 1
cut_clique_3(25,1):  0.37307 x(0,1) + 0.38324 x(2,1) >= 1
cut_clique_3(26,1):  0.37307 x(0,1) + 0.39091 x(2,1) >= 1
cut_clique_3(27,1):  0.37307 x(0,1) + 0.43000 x(2,1) >= 1
cut_clique_3(28,1):  0.33949 x(0,1) + 0.43000 x(2,1) >= 1
cut_clique_3(29,1):  0.31233 x(0,1) + 0.43000 x(2,1) >= 1
cut_clique_3(30,1):  0.30296 x(0,1) + 0.43000 x(2,1) >= 1
cut_clique_3(31,1):  0.30296 x(0,1) + 0.43860 x(2,1) >= 1
cut_clique_3(32,1):  0.28782 x(0,1) + 0.43860 x(2,1) >= 1
cut_clique_3(33,1):  0.27055 x(0,1) + 0.43860 x(2,1) >= 1
cut_clique_3(34,1):  0.24890 x(0,1) + 0.43860 x(2,1) >= 1
cut_clique_3(35,1):  0.24890 x(0,1) + 0.46930 x(2,1) >= 1
cut_clique_3(36,1):  0.24890 x(0,1) + 0.48338 x(2,1) >= 1
cut_clique_3(37,1):  0.23646 x(0,1) + 0.48338 x(2,1) >= 1
cut_clique_3(38,1):  0.21754 x(0,1) + 0.48338 x(2,1) >= 1
cut_clique_3(39,1):  0.21754 x(0,1) + 0.49788 x(2,1) >= 1
cut_clique_3(40,1):  0.20231 x(0,1) + 0.49788 x(2,1) >= 1
cut_clique_3(41,1):  0.20231 x(0,1) + 0.52775 x(2,1) >= 1
cut_clique_3(42,1):  0.18815 x(0,1) + 0.52775 x(2,1) >= 1
cut_clique_3(43,1):  0.17686 x(0,1) + 0.52775 x(2,1) >= 1
cut_clique_3(44,1):  0.17686 x(0,1) + 0.56997 x(2,1) >= 1
cut_clique_3(45,1):  0.17686 x(0,1) + 0.62697 x(2,1) >= 1
cut_clique_3(46,1):  0.15918 x(0,1) + 0.62697 x(2,1) >= 1
cut_clique_3(47,1):  0.14644 x(0,1) + 0.62697 x(2,1) >= 1
cut_clique_3(48,1):  0.14351 x(0,1) + 0.62697 x(2,1) >= 1
cut_clique_3(49,1):  0.14351 x(0,1) + 0.66459 x(2,1) >= 1
cut_clique_3(0,2):  0.07831 x(0,2) + 0.03318 x(2,2) >= 1
cut_clique_3(1,2):  0.07674 x(0,2) + 0.03318 x(2,2) >= 1
cut_clique_4(0,1):  0.34497 x(0,1) + 0.46984 x(1,1) >= 1
cut_clique_4(1,1):  0.34497 x(0,1) + 0.44634 x(1,1) >= 1
cut_clique_4(2,1):  0.16220 x(0,1) + 0.47368 x(2,1) >= 1
cut_clique_4(3,1):  0.17193 x(0,1) + 0.47368 x(2,1) >= 1
cut_clique_4(4,1):  0.17193 x(0,1) + 0.52105 x(2,1) >= 1
cut_clique_4(5,1):  0.18913 x(0,1) + 0.50542 x(2,1) >= 1
cut_clique_4(6,1):  0.18345 x(0,1) + 0.50542 x(2,1) >= 1
cut_clique_4(7,1):  0.18162 x(0,1) + 0.50542 x(2,1) >= 1
cut_clique_4(8,1):  0.18162 x(0,1) + 0.48293 x(2,1) >= 1
cut_clique_4(9,1):  0.18162 x(0,1) + 0.45395 x(2,1) >= 1
cut_clique_4(10,1):  0.14747 x(0,1) + 0.45395 x(2,1) >= 1
cut_clique_4(11,1):  0.14747 x(0,1) + 0.45849 x(2,1) >= 1
cut_clique_4(12,1):  0.14747 x(0,1) + 0.41723 x(2,1) >= 1
cut_clique_4(13,1):  0.14747 x(0,1) + 0.40471 x(2,1) >= 1
cut_clique_4(14,1):  0.15779 x(0,1) + 0.40471 x(2,1) >= 1
cut_clique_4(15,1):  0.15779 x(0,1) + 0.41280 x(2,1) >= 1
cut_clique_4(16,1):  0.15779 x(0,1) + 0.43344 x(2,1) >= 1
cut_clique_4(17,1):  0.15779 x(0,1) + 0.45945 x(2,1) >= 1
cut_clique_4(18,1):  0.15779 x(0,1) + 0.50080 x(2,1) >= 1
cut_clique_4(19,1):  0.14990 x(0,1) + 0.50080 x(2,1) >= 1
cut_clique_4(20,1):  0.14990 x(0,1) + 0.49579 x(2,1) >= 1
cut_clique_4(21,1):  0.16489 x(0,1) + 0.49579 x(2,1) >= 1
cut_clique_4(22,1):  0.16489 x(0,1) + 0.54537 x(2,1) >= 1
cut_clique_4(23,1):  0.16489 x(0,1) + 0.52901 x(2,1) >= 1
cut_clique_4(24,1):  0.16489 x(0,1) + 0.53059 x(2,1) >= 1
cut_clique_4(25,1):  0.16324 x(0,1) + 0.53059 x(2,1) >= 1
cut_clique_4(26,1):  0.38078 x(0,1) + 0.14322 x(2,1) >= 1
cut_clique_4(27,1):  0.37697 x(0,1) + 0.14322 x(2,1) >= 1
cut_clique_4(28,1):  0.34682 x(0,1) + 0.14322 x(2,1) >= 1
cut_clique_4(29,1):  0.32948 x(0,1) + 0.14322 x(2,1) >= 1
cut_clique_4(30,1):  0.31630 x(0,1) + 0.14322 x(2,1) >= 1
cut_clique_4(31,1):  0.28467 x(0,1) + 0.14322 x(2,1) >= 1
cut_clique_4(32,1):  0.25942 x(0,1) + 0.14322 x(2,1) >= 1
cut_clique_4(33,1):  0.24126 x(0,1) + 0.14322 x(2,1) >= 1
cut_clique_4(34,1):  0.21713 x(0,1) + 0.14322 x(2,1) >= 1
cut_clique_4(35,1):  0.20411 x(0,1) + 0.14322 x(2,1) >= 1
cut_clique_4(36,1):  0.19594 x(0,1) + 0.14322 x(2,1) >= 1
cut_clique_4(37,1):  0.18810 x(0,1) + 0.14322 x(2,1) >= 1
cut_clique_4(38,1):  0.17870 x(0,1) + 0.14322 x(2,1) >= 1
cut_clique_4(39,1):  0.16083 x(0,1) + 0.14322 x(2,1) >= 1
cut_clique_4(40,1):  0.15600 x(0,1) + 0.14322 x(2,1) >= 1
cut_clique_4(41,1):  0.15288 x(0,1) + 0.14322 x(2,1) >= 1
cut_clique_4(42,1):  0.14830 x(0,1) + 0.14322 x(2,1) >= 1
cut_clique_4(43,1):  0.14681 x(0,1) + 0.14322 x(2,1) >= 1
cut_clique_4(44,1):  0.14388 x(0,1) + 0.14322 x(2,1) >= 1
cut_clique_5(0,1):  0.06219 x(0,1) + 0.04906 x(1,1) + 0.14348 x(2,1) >= 1
cut_clique_5(1,1):  0.06219 x(0,1) + 0.04906 x(1,1) + 0.13631 x(2,1) >= 1
cut_clique_5(2,1):  0.06219 x(0,1) + 0.04710 x(1,1) + 0.13631 x(2,1) >= 1
cut_clique_5(3,1):  0.06219 x(0,1) + 0.04522 x(1,1) + 0.13631 x(2,1) >= 1
cut_clique_5(4,1):  0.06219 x(0,1) + 0.04522 x(1,1) + 0.12949 x(2,1) >= 1
cut_clique_5(5,1):  0.06219 x(0,1) + 0.04522 x(1,1) + 0.12172 x(2,1) >= 1
cut_clique_5(6,1):  0.06219 x(0,1) + 0.04522 x(1,1) + 0.10955 x(2,1) >= 1
cut_clique_5(7,1):  0.06219 x(0,1) + 0.04522 x(1,1) + 0.09859 x(2,1) >= 1
cut_clique_5(8,1):  0.06219 x(0,1) + 0.04522 x(1,1) + 0.09366 x(2,1) >= 1
cut_clique_5(9,1):  0.06219 x(0,1) + 0.04522 x(1,1) + 0.09179 x(2,1) >= 1
cut_clique_5(10,1):  0.06219 x(0,1) + 0.04522 x(1,1) + 0.08445 x(2,1) >= 1
cut_clique_5(11,1):  0.06219 x(0,1) + 0.04522 x(1,1) + 0.08276 x(2,1) >= 1
cut_clique_5(12,1):  0.06219 x(0,1) + 0.04522 x(1,1) + 0.08193 x(2,1) >= 1
cut_clique_5(13,1):  0.06219 x(0,1) + 0.04522 x(1,1) + 0.08111 x(2,1) >= 1
cut_clique_5(14,1):  0.06219 x(0,1) + 0.04522 x(1,1) + 0.07949 x(2,1) >= 1
cut_clique_5(0,2):  0.04610 x(0,2) + 0.07109 x(1,2) >= 1
cut_clique_5(1,2):  0.04610 x(0,2) + 0.06754 x(1,2) >= 1
cut_clique_5(2,2):  0.04241 x(0,2) + 0.06754 x(1,2) >= 1
cut_clique_5(3,2):  0.04241 x(0,2) + 0.06349 x(1,2) >= 1
cut_clique_5(4,2):  0.04241 x(0,2) + 0.05968 x(1,2) >= 1
cut_clique_5(5,2):  0.04241 x(0,2) + 0.05848 x(1,2) >= 1
Bounds
 0 <= C <= 44
 14 <= x(0,0) <= 43
 0 <= y(0,1,0) <= 1
 0 <= y(1,0,0) <= 1
 0 <= v(0,1,0)p <= 36
 0 <= v(0,1,0)n <= 23
 0 <= v(1,0,0)p <= 19
 0 <= v(1,0,0)n <= 40
 0 <= u(0,1,0)p <= 440
 0 <= u(0,1,0)n <= 440
 0 <= u(1,0,0)p <= 440
 0 <= u(1,0,0)n <= 440
 0 <= y(0,2,0) <= 1
 0 <= y(2,0,0) <= 1
 0 <= v(0,2,0)p <= 28
 0 <= v(0,2,0)n <= 30
 0 <= v(2,0,0)p <= 27
 0 <= v(2,0,0)n <= 31
 0 <= u(0,2,0)p <= 440
 0 <= u(0,2,0)n <= 440
 0 <= u(2,0,0)p <= 440
 0 <= u(2,0,0)n <= 440
 4 <= x(1,0) <= 34
 0 <= y(1,2,0) <= 1
 0 <= y(2,1,0) <= 1
 0 <= v(1,2,0)p <= 19
 0 <= v(1,2,0)n <= 40
 0 <= v(2,1,0)p <= 35
 0 <= v(2,1,0)n <= 24
 0 <= u(1,2,0)p <= 440
 0 <= u(1,2,0)n <= 440
 0 <= u(2,1,0)p <= 440
 0 <= u(2,1,0)n <= 440
 13 <= x(2,0) <= 42
 0 <= x(0,1) <= 29
 0 <= y(0,1,1) <= 1
 0 <= y(1,0,1) <= 1
 0 <= v(0,1,1)p <= 25
 0 <= v(0,1,1)n <= 34
 0 <= v(1,0,1)p <= 23
 0 <= v(1,0,1)n <= 36
 0 <= u(0,1,1)p <= 440
 0 <= u(0,1,1)n <= 440
 0 <= u(1,0,1)p <= 440
 0 <= u(1,0,1)n <= 440
 0 <= y(0,2,1) <= 1
 0 <= y(2,0,1) <= 1
 0 <= v(0,2,1)p <= 22
 0 <= v(0,2,1)n <= 36
 0 <= v(2,0,1)p <= 22
 0 <= v(2,0,1)n <= 36
 0 <= u(0,2,1)p <= 440
 0 <= u(0,2,1)n <= 440
 0 <= u(2,0,1)p <= 440
 0 <= u(2,0,1)n <= 440
 0 <= x(1,1) <= 30
 0 <= y(1,2,1) <= 1
 0 <= y(2,1,1) <= 1
 0 <= v(1,2,1)p <= 23
 0 <= v(1,2,1)n <= 36
 0 <= v(2,1,1)p <= 25
 0 <= v(2,1,1)n <= 34
 0 <= u(1,2,1)p <= 440
 0 <= u(1,2,1)n <= 440
 0 <= u(2,1,1)p <= 440
 0 <= u(2,1,1)n <= 440
 0 <= x(2,1) <= 29
 7 <= x(0,2) <= 36
 0 <= y(0,1,2) <= 1
 0 <= y(1,0,2) <= 1
 0 <= v(0,1,2)p <= 22
 0 <= v(0,1,2)n <= 37
 0 <= v(1,0,2)p <= 23
 0 <= v(1,0,2)n <= 36
 0 <= u(0,1,2)p <= 440
 0 <= u(0,1,2)n <= 440
 0 <= u(1,0,2)p <= 440
 0 <= u(1,0,2)n <= 440
 0 <= y(0,2,2) <= 1
 0 <= y(2,0,2) <= 1
 0 <= v(0,2,2)p <= 23
 0 <= v(0,2,2)n <= 35
 0 <= v(2,0,2)p <= 22
 0 <= v(2,0,2)n <= 36
 0 <= u(0,2,2)p <= 440
 0 <= u(0,2,2)n <= 440
 0 <= u(2,0,2)p <= 440
 0 <= u(2,0,2)n <= 440
 7 <= x(1,2) <= 37
 0 <= y(1,2,2) <= 1
 0 <= y(2,1,2) <= 1
 0 <= v(1,2,2)p <= 24
 0 <= v(1,2,2)n <= 35
 0 <= v(2,1,2)p <= 22
 0 <= v(2,1,2)n <= 37
 0 <= u(1,2,2)p <= 440
 0 <= u(1,2,2)n <= 440
 0 <= u(2,1,2)p <= 440
 0 <= u(2,1,2)n <= 440
 7 <= x(2,2) <= 36
End
